
Gurobi 11.0.1 (win64, gurobi_cl) logging started Thu Mar 28 16:10:40 2024

Set parameter Username
Set parameter LogFile to value "gurobi.log"
Using license file C:\Users\alyden\gurobi.lic

Gurobi 11.0.1 (win64, gurobi_cl) logging started Thu Mar 28 16:10:55 2024

Set parameter Username
Set parameter LogFile to value "gurobi.log"
Using license file C:\Users\alyden\gurobi.lic

Gurobi 11.0.1 (win64, gurobi_cl) logging started Thu Mar 28 16:12:03 2024

Set parameter Username
Set parameter LogFile to value "gurobi.log"
Using license file C:\Users\alyden\gurobi.lic

Gurobi 11.0.1 (win64, gurobi_cl) logging started Thu Mar 28 16:12:36 2024

Set parameter Username
Set parameter LogFile to value "gurobi.log"
Using license file C:\Users\alyden\gurobi.lic

Gurobi 11.0.1 (win64, gurobi_cl) logging started Thu Mar 28 16:13:02 2024

Set parameter Username
Set parameter LogFile to value "gurobi.log"
Using license file C:\Users\alyden\gurobi.lic

Gurobi 11.0.1 (win64, gurobi_cl) logging started Thu Mar 28 16:16:33 2024

Set parameter Username
Set parameter LogFile to value "gurobi.log"
Using license file C:\Users\alyden\gurobi.lic
Academic license - for non-commercial use only - expires 2025-03-28

Gurobi 11.0.1 (win64, gurobi_cl) logging started Thu Mar 28 16:17:56 2024

Set parameter Username
Set parameter LogFile to value "gurobi.log"
Using license file C:\Users\alyden\gurobi.lic
Academic license - for non-commercial use only - expires 2025-03-28

Gurobi 9.5.2 (win64, gurobi_cl) logging started Thu Mar 28 16:22:55 2024

Set parameter Username
Set parameter LogFile to value "gurobi.log"
Academic license - for non-commercial use only - expires 2025-03-28
Using license file C:\Users\alyden\gurobi.lic

Gurobi 9.5.2 (win64, gurobi_cl) logging started Thu Mar 28 16:24:08 2024

Set parameter Username
Set parameter LogFile to value "gurobi.log"
Academic license - for non-commercial use only - expires 2025-03-28
Using license file C:\Users\alyden\gurobi.lic

Gurobi 9.5.2 (win64, gurobi_cl) logging started Thu Mar 28 16:24:20 2024

Set parameter Username
Set parameter LogFile to value "gurobi.log"
Academic license - for non-commercial use only - expires 2025-03-28
Using license file C:\Users\alyden\gurobi.lic

Gurobi 9.5.2 (win64, gurobi_cl) logging started Thu Mar 28 16:24:39 2024

Set parameter Username
Set parameter LogFile to value "gurobi.log"
Academic license - for non-commercial use only - expires 2025-03-28
Using license file C:\Users\alyden\gurobi.lic

Gurobi 9.5.2 (win64, gurobi_cl) logging started Thu Mar 28 16:26:09 2024

Set parameter Username
Set parameter LogFile to value "gurobi.log"
Academic license - for non-commercial use only - expires 2025-03-28
Using license file C:\Users\alyden\gurobi.lic

Gurobi 9.5.2 (win64, gurobi_cl) logging started Thu Mar 28 16:27:50 2024

Set parameter Username
Set parameter LogFile to value "gurobi.log"
Academic license - for non-commercial use only - expires 2025-03-28
Using license file C:\Users\alyden\gurobi.lic

Gurobi 11.0.1 (win64, gurobi_cl) logging started Thu Mar 28 16:28:15 2024

Set parameter Username
Set parameter LogFile to value "gurobi.log"
Using license file C:\Users\alyden\gurobi.lic
Academic license - for non-commercial use only - expires 2025-03-28

Gurobi 11.0.1 (win64, gurobi_cl) logging started Thu Mar 28 16:32:31 2024

Set parameter Username
Set parameter LogFile to value "gurobi.log"
Using license file C:\Users\alyden\gurobi.lic
Academic license - for non-commercial use only - expires 2025-03-28

Gurobi 11.0.1 (win64, gurobi_cl) logging started Fri Mar 29 10:54:45 2024

Set parameter Username
Set parameter LogFile to value "gurobi.log"
Using license file C:\Users\alyden\gurobi.lic
Academic license - for non-commercial use only - expires 2025-03-28

Gurobi 9.5.2 (win64, gurobi_cl) logging started Fri Mar 29 11:07:10 2024

Set parameter Username
Set parameter LogFile to value "gurobi.log"
Academic license - for non-commercial use only - expires 2025-03-28
Using license file C:\Users\alyden\gurobi.lic

Gurobi 9.5.2 (win64, gurobi_cl) logging started Fri Mar 29 11:11:17 2024

Set parameter Username
Set parameter LogFile to value "gurobi.log"
Academic license - for non-commercial use only - expires 2025-03-28
Using license file C:\Users\alyden\gurobi.lic

Gurobi 9.5.2 (win64, gurobi_cl) logging started Fri Mar 29 11:15:18 2024

Set parameter Username
Set parameter LogFile to value "gurobi.log"
Academic license - for non-commercial use only - expires 2025-03-28
Using license file C:\Users\alyden\gurobi.lic

Gurobi 9.5.2 (win64, gurobi_cl) logging started Fri Mar 29 11:21:50 2024

Set parameter Username
Set parameter LogFile to value "gurobi.log"
Academic license - for non-commercial use only - expires 2025-03-28
Using license file C:\Users\alyden\gurobi.lic

Gurobi 9.5.2 (win64, gurobi_cl) logging started Fri Mar 29 11:27:34 2024

Set parameter Username
Set parameter LogFile to value "gurobi.log"
Academic license - for non-commercial use only - expires 2025-03-28
Using license file C:\Users\alyden\gurobi.lic

Gurobi 9.5.2 (win64, gurobi_cl) logging started Fri Mar 29 11:36:19 2024

Set parameter Username
Set parameter LogFile to value "gurobi.log"
Academic license - for non-commercial use only - expires 2025-03-28
Using license file C:\Users\alyden\gurobi.lic

Gurobi 9.5.2 (win64, gurobi_cl) logging started Fri Mar 29 11:39:01 2024

Set parameter Username
Set parameter LogFile to value "gurobi.log"
Academic license - for non-commercial use only - expires 2025-03-28
Using license file C:\Users\alyden\gurobi.lic

Gurobi 9.5.2 (win64, gurobi_cl) logging started Fri Mar 29 11:43:00 2024

Set parameter Username
Set parameter LogFile to value "gurobi.log"
Academic license - for non-commercial use only - expires 2025-03-28
Using license file C:\Users\alyden\gurobi.lic

Gurobi 9.5.2 (win64, gurobi_cl) logging started Fri Mar 29 11:43:52 2024

Set parameter Username
Set parameter LogFile to value "gurobi.log"
Academic license - for non-commercial use only - expires 2025-03-28
Using license file C:\Users\alyden\gurobi.lic

Gurobi 9.5.2 (win64, gurobi_cl) logging started Fri Mar 29 11:44:23 2024

Set parameter Username
Set parameter LogFile to value "gurobi.log"
Academic license - for non-commercial use only - expires 2025-03-28
Using license file C:\Users\alyden\gurobi.lic

Gurobi 9.5.2 (win64, gurobi_cl) logging started Fri Mar 29 11:45:55 2024

Set parameter Username
Set parameter LogFile to value "gurobi.log"
Academic license - for non-commercial use only - expires 2025-03-28
Using license file C:\Users\alyden\gurobi.lic

Gurobi 9.5.2 (win64, gurobi_cl) logging started Fri Mar 29 12:16:23 2024

Set parameter Username
Set parameter LogFile to value "gurobi.log"
Academic license - for non-commercial use only - expires 2025-03-28
Using license file C:\Users\alyden\gurobi.lic

Gurobi 9.5.2 (win64, gurobi_cl) logging started Fri Mar 29 14:04:21 2024

Set parameter Username
Set parameter LogFile to value "gurobi.log"
Academic license - for non-commercial use only - expires 2025-03-28
Using license file C:\Users\alyden\gurobi.lic

Gurobi 9.5.2 (win64, gurobi_cl) logging started Fri Mar 29 14:06:30 2024

Set parameter Username
Set parameter LogFile to value "gurobi.log"
Academic license - for non-commercial use only - expires 2025-03-28
Using license file C:\Users\alyden\gurobi.lic

Gurobi 9.5.2 (win64, gurobi_cl) logging started Fri Mar 29 14:07:54 2024

Set parameter Username
Set parameter LogFile to value "gurobi.log"
Academic license - for non-commercial use only - expires 2025-03-28
Using license file C:\Users\alyden\gurobi.lic

Gurobi 9.5.2 (win64, gurobi_cl) logging started Fri Mar 29 14:10:47 2024

Set parameter Username
Set parameter LogFile to value "gurobi.log"
Academic license - for non-commercial use only - expires 2025-03-28
Using license file C:\Users\alyden\gurobi.lic

Gurobi 9.5.2 (win64, gurobi_cl) logging started Fri Mar 29 14:12:02 2024

Set parameter Username
Set parameter LogFile to value "gurobi.log"
Academic license - for non-commercial use only - expires 2025-03-28
Using license file C:\Users\alyden\gurobi.lic

Gurobi 9.5.2 (win64, gurobi_cl) logging started Fri Mar 29 14:15:13 2024

Set parameter Username
Set parameter LogFile to value "gurobi.log"
Academic license - for non-commercial use only - expires 2025-03-28
Using license file C:\Users\alyden\gurobi.lic

Gurobi 9.5.2 (win64, gurobi_cl) logging started Fri Mar 29 14:22:04 2024

Set parameter Username
Set parameter LogFile to value "gurobi.log"
Academic license - for non-commercial use only - expires 2025-03-28
Using license file C:\Users\alyden\gurobi.lic

Gurobi 9.5.2 (win64, gurobi_cl) logging started Fri Mar 29 14:23:06 2024

Set parameter Username
Set parameter LogFile to value "gurobi.log"
Academic license - for non-commercial use only - expires 2025-03-28
Using license file C:\Users\alyden\gurobi.lic

Gurobi 9.5.2 (win64, gurobi_cl) logging started Fri Mar 29 14:23:45 2024

Set parameter Username
Set parameter LogFile to value "gurobi.log"
Academic license - for non-commercial use only - expires 2025-03-28
Using license file C:\Users\alyden\gurobi.lic

Gurobi 9.5.2 (win64, gurobi_cl) logging started Fri Mar 29 14:24:34 2024

Set parameter Username
Set parameter LogFile to value "gurobi.log"
Academic license - for non-commercial use only - expires 2025-03-28
Using license file C:\Users\alyden\gurobi.lic

Gurobi 9.5.2 (win64, gurobi_cl) logging started Fri Mar 29 14:25:49 2024

Set parameter Username
Set parameter LogFile to value "gurobi.log"
Academic license - for non-commercial use only - expires 2025-03-28
Using license file C:\Users\alyden\gurobi.lic

Gurobi 9.5.2 (win64, gurobi_cl) logging started Fri Mar 29 14:31:01 2024

Set parameter Username
Set parameter LogFile to value "gurobi.log"
Academic license - for non-commercial use only - expires 2025-03-28
Using license file C:\Users\alyden\gurobi.lic

Gurobi 9.5.2 (win64, gurobi_cl) logging started Fri Mar 29 14:31:47 2024

Set parameter Username
Set parameter LogFile to value "gurobi.log"
Academic license - for non-commercial use only - expires 2025-03-28
Using license file C:\Users\alyden\gurobi.lic

Gurobi 9.5.2 (win64, gurobi_cl) logging started Fri Mar 29 14:34:34 2024

Set parameter Username
Set parameter LogFile to value "gurobi.log"
Academic license - for non-commercial use only - expires 2025-03-28
Using license file C:\Users\alyden\gurobi.lic

Gurobi 9.5.2 (win64, gurobi_cl) logging started Fri Mar 29 14:35:36 2024

Set parameter Username
Set parameter LogFile to value "gurobi.log"
Academic license - for non-commercial use only - expires 2025-03-28
Using license file C:\Users\alyden\gurobi.lic

Gurobi 9.5.2 (win64, gurobi_cl) logging started Fri Mar 29 14:38:06 2024

Set parameter Username
Set parameter LogFile to value "gurobi.log"
Academic license - for non-commercial use only - expires 2025-03-28
Using license file C:\Users\alyden\gurobi.lic

Gurobi 9.5.2 (win64, gurobi_cl) logging started Fri Mar 29 14:40:04 2024

Set parameter Username
Set parameter LogFile to value "gurobi.log"
Academic license - for non-commercial use only - expires 2025-03-28
Using license file C:\Users\alyden\gurobi.lic

Gurobi 9.5.2 (win64, gurobi_cl) logging started Fri Mar 29 14:40:23 2024

Set parameter Username
Set parameter LogFile to value "gurobi.log"
Academic license - for non-commercial use only - expires 2025-03-28
Using license file C:\Users\alyden\gurobi.lic

Gurobi 9.5.2 (win64, gurobi_cl) logging started Fri Mar 29 14:41:21 2024

Set parameter Username
Set parameter LogFile to value "gurobi.log"
Academic license - for non-commercial use only - expires 2025-03-28
Using license file C:\Users\alyden\gurobi.lic

Gurobi 9.5.2 (win64, gurobi_cl) logging started Fri Mar 29 14:42:12 2024

Set parameter Username
Set parameter LogFile to value "gurobi.log"
Academic license - for non-commercial use only - expires 2025-03-28
Using license file C:\Users\alyden\gurobi.lic

Gurobi 9.5.2 (win64, gurobi_cl) logging started Fri Mar 29 14:42:35 2024

Set parameter Username
Set parameter LogFile to value "gurobi.log"
Academic license - for non-commercial use only - expires 2025-03-28
Using license file C:\Users\alyden\gurobi.lic

Gurobi 9.5.2 (win64, gurobi_cl) logging started Fri Mar 29 14:42:56 2024

Set parameter Username
Set parameter LogFile to value "gurobi.log"
Academic license - for non-commercial use only - expires 2025-03-28
Using license file C:\Users\alyden\gurobi.lic

Gurobi 9.5.2 (win64, gurobi_cl) logging started Fri Mar 29 14:43:28 2024

Set parameter Username
Set parameter LogFile to value "gurobi.log"
Academic license - for non-commercial use only - expires 2025-03-28
Using license file C:\Users\alyden\gurobi.lic

Gurobi 9.5.2 (win64, gurobi_cl) logging started Fri Mar 29 14:44:15 2024

Set parameter Username
Set parameter LogFile to value "gurobi.log"
Academic license - for non-commercial use only - expires 2025-03-28
Using license file C:\Users\alyden\gurobi.lic

Gurobi 9.5.2 (win64, gurobi_cl) logging started Fri Mar 29 14:44:23 2024

Set parameter Username
Set parameter LogFile to value "gurobi.log"
Academic license - for non-commercial use only - expires 2025-03-28
Using license file C:\Users\alyden\gurobi.lic

Gurobi 9.5.2 (win64, gurobi_cl) logging started Fri Mar 29 14:45:24 2024

Set parameter Username
Set parameter LogFile to value "gurobi.log"
Academic license - for non-commercial use only - expires 2025-03-28
Using license file C:\Users\alyden\gurobi.lic

Gurobi 9.5.2 (win64, gurobi_cl) logging started Fri Mar 29 14:45:53 2024

Set parameter Username
Set parameter LogFile to value "gurobi.log"
Academic license - for non-commercial use only - expires 2025-03-28
Using license file C:\Users\alyden\gurobi.lic

Gurobi 9.5.2 (win64, gurobi_cl) logging started Fri Mar 29 14:46:05 2024

Set parameter Username
Set parameter LogFile to value "gurobi.log"
Academic license - for non-commercial use only - expires 2025-03-28
Using license file C:\Users\alyden\gurobi.lic

Gurobi 9.5.2 (win64, gurobi_cl) logging started Fri Mar 29 14:48:11 2024

Set parameter Username
Set parameter LogFile to value "gurobi.log"
Academic license - for non-commercial use only - expires 2025-03-28
Using license file C:\Users\alyden\gurobi.lic

Gurobi 9.5.2 (win64, gurobi_cl) logging started Fri Mar 29 14:48:30 2024

Set parameter Username
Set parameter LogFile to value "gurobi.log"
Academic license - for non-commercial use only - expires 2025-03-28
Using license file C:\Users\alyden\gurobi.lic

Gurobi 9.5.2 (win64, gurobi_cl) logging started Fri Mar 29 14:53:24 2024

Set parameter Username
Set parameter LogFile to value "gurobi.log"
Academic license - for non-commercial use only - expires 2025-03-28
Using license file C:\Users\alyden\gurobi.lic

Gurobi 9.5.2 (win64, gurobi_cl) logging started Fri Mar 29 14:53:48 2024

Set parameter Username
Set parameter LogFile to value "gurobi.log"
Academic license - for non-commercial use only - expires 2025-03-28
Using license file C:\Users\alyden\gurobi.lic

Gurobi 9.5.2 (win64, gurobi_cl) logging started Fri Mar 29 14:54:12 2024

Set parameter Username
Set parameter LogFile to value "gurobi.log"
Academic license - for non-commercial use only - expires 2025-03-28
Using license file C:\Users\alyden\gurobi.lic

Gurobi 9.5.2 (win64, gurobi_cl) logging started Fri Mar 29 14:54:25 2024

Set parameter Username
Set parameter LogFile to value "gurobi.log"
Academic license - for non-commercial use only - expires 2025-03-28
Using license file C:\Users\alyden\gurobi.lic

Gurobi 9.5.2 (win64, gurobi_cl) logging started Fri Mar 29 14:55:10 2024

Set parameter Username
Set parameter LogFile to value "gurobi.log"
Academic license - for non-commercial use only - expires 2025-03-28
Using license file C:\Users\alyden\gurobi.lic

Gurobi 9.5.2 (win64, gurobi_cl) logging started Fri Mar 29 14:55:54 2024

Set parameter Username
Set parameter LogFile to value "gurobi.log"
Academic license - for non-commercial use only - expires 2025-03-28
Using license file C:\Users\alyden\gurobi.lic

Gurobi 9.5.2 (win64, gurobi_cl) logging started Fri Mar 29 14:59:39 2024

Set parameter Username
Set parameter LogFile to value "gurobi.log"
Academic license - for non-commercial use only - expires 2025-03-28
Using license file C:\Users\alyden\gurobi.lic

Gurobi 9.5.2 (win64, gurobi_cl) logging started Fri Mar 29 15:00:34 2024

Set parameter Username
Set parameter LogFile to value "gurobi.log"
Academic license - for non-commercial use only - expires 2025-03-28
Using license file C:\Users\alyden\gurobi.lic

Gurobi 9.5.2 (win64, gurobi_cl) logging started Fri Mar 29 15:01:59 2024

Set parameter Username
Set parameter LogFile to value "gurobi.log"
Academic license - for non-commercial use only - expires 2025-03-28
Using license file C:\Users\alyden\gurobi.lic

Gurobi 9.5.2 (win64, gurobi_cl) logging started Fri Mar 29 15:03:12 2024

Set parameter Username
Set parameter LogFile to value "gurobi.log"
Academic license - for non-commercial use only - expires 2025-03-28
Using license file C:\Users\alyden\gurobi.lic

Gurobi 9.5.2 (win64, gurobi_cl) logging started Fri Mar 29 15:05:21 2024

Set parameter Username
Set parameter LogFile to value "gurobi.log"
Academic license - for non-commercial use only - expires 2025-03-28
Using license file C:\Users\alyden\gurobi.lic

Gurobi 9.5.2 (win64, gurobi_cl) logging started Fri Mar 29 15:06:03 2024

Set parameter Username
Set parameter LogFile to value "gurobi.log"
Academic license - for non-commercial use only - expires 2025-03-28
Using license file C:\Users\alyden\gurobi.lic

Gurobi 9.5.2 (win64, gurobi_cl) logging started Fri Mar 29 15:06:53 2024

Set parameter Username
Set parameter LogFile to value "gurobi.log"
Academic license - for non-commercial use only - expires 2025-03-28
Using license file C:\Users\alyden\gurobi.lic

Gurobi 9.5.2 (win64, gurobi_cl) logging started Fri Mar 29 15:08:11 2024

Set parameter Username
Set parameter LogFile to value "gurobi.log"
Academic license - for non-commercial use only - expires 2025-03-28
Using license file C:\Users\alyden\gurobi.lic

Gurobi 9.5.2 (win64, gurobi_cl) logging started Fri Mar 29 15:10:12 2024

Set parameter Username
Set parameter LogFile to value "gurobi.log"
Academic license - for non-commercial use only - expires 2025-03-28
Using license file C:\Users\alyden\gurobi.lic

Gurobi 9.5.2 (win64, gurobi_cl) logging started Fri Mar 29 15:10:42 2024

Set parameter Username
Set parameter LogFile to value "gurobi.log"
Academic license - for non-commercial use only - expires 2025-03-28
Using license file C:\Users\alyden\gurobi.lic

Gurobi 9.5.2 (win64, gurobi_cl) logging started Fri Mar 29 15:11:08 2024

Set parameter Username
Set parameter LogFile to value "gurobi.log"
Academic license - for non-commercial use only - expires 2025-03-28
Using license file C:\Users\alyden\gurobi.lic

Gurobi 9.5.2 (win64, gurobi_cl) logging started Fri Mar 29 15:14:14 2024

Set parameter Username
Set parameter LogFile to value "gurobi.log"
Academic license - for non-commercial use only - expires 2025-03-28
Using license file C:\Users\alyden\gurobi.lic

Gurobi 9.5.2 (win64, gurobi_cl) logging started Fri Mar 29 15:17:49 2024

Set parameter Username
Set parameter LogFile to value "gurobi.log"
Academic license - for non-commercial use only - expires 2025-03-28
Using license file C:\Users\alyden\gurobi.lic

Gurobi 9.5.2 (win64, gurobi_cl) logging started Fri Mar 29 15:20:38 2024

Set parameter Username
Set parameter LogFile to value "gurobi.log"
Academic license - for non-commercial use only - expires 2025-03-28
Using license file C:\Users\alyden\gurobi.lic

Gurobi 9.5.2 (win64, gurobi_cl) logging started Fri Mar 29 15:20:59 2024

Set parameter Username
Set parameter LogFile to value "gurobi.log"
Academic license - for non-commercial use only - expires 2025-03-28
Using license file C:\Users\alyden\gurobi.lic

Gurobi 9.5.2 (win64, gurobi_cl) logging started Fri Mar 29 15:23:47 2024

Set parameter Username
Set parameter LogFile to value "gurobi.log"
Academic license - for non-commercial use only - expires 2025-03-28
Using license file C:\Users\alyden\gurobi.lic

Gurobi 9.5.2 (win64, gurobi_cl) logging started Fri Mar 29 15:29:51 2024

Set parameter Username
Set parameter LogFile to value "gurobi.log"
Academic license - for non-commercial use only - expires 2025-03-28
Using license file C:\Users\alyden\gurobi.lic

Gurobi 9.5.2 (win64, gurobi_cl) logging started Fri Mar 29 15:30:42 2024

Set parameter Username
Set parameter LogFile to value "gurobi.log"
Academic license - for non-commercial use only - expires 2025-03-28
Using license file C:\Users\alyden\gurobi.lic

Gurobi 9.5.2 (win64, gurobi_cl) logging started Fri Mar 29 15:31:35 2024

Set parameter Username
Set parameter LogFile to value "gurobi.log"
Academic license - for non-commercial use only - expires 2025-03-28
Using license file C:\Users\alyden\gurobi.lic

Gurobi 9.5.2 (win64, gurobi_cl) logging started Fri Mar 29 15:31:51 2024

Set parameter Username
Set parameter LogFile to value "gurobi.log"
Academic license - for non-commercial use only - expires 2025-03-28
Using license file C:\Users\alyden\gurobi.lic

Gurobi 9.5.2 (win64, gurobi_cl) logging started Fri Mar 29 15:34:37 2024

Set parameter Username
Set parameter LogFile to value "gurobi.log"
Academic license - for non-commercial use only - expires 2025-03-28
Using license file C:\Users\alyden\gurobi.lic

Gurobi 9.5.2 (win64, gurobi_cl) logging started Fri Mar 29 15:35:19 2024

Set parameter Username
Set parameter LogFile to value "gurobi.log"
Academic license - for non-commercial use only - expires 2025-03-28
Using license file C:\Users\alyden\gurobi.lic

Gurobi 9.5.2 (win64, gurobi_cl) logging started Fri Mar 29 15:35:37 2024

Set parameter Username
Set parameter LogFile to value "gurobi.log"
Academic license - for non-commercial use only - expires 2025-03-28
Using license file C:\Users\alyden\gurobi.lic

Gurobi 9.5.2 (win64, gurobi_cl) logging started Tue Apr  2 13:43:21 2024

Set parameter Username
Set parameter LogFile to value "gurobi.log"
Academic license - for non-commercial use only - expires 2025-03-28
Using license file C:\Users\alyden\gurobi.lic

Gurobi 9.5.2 (win64, gurobi_cl) logging started Tue Apr  2 13:43:36 2024

Set parameter Username
Set parameter LogFile to value "gurobi.log"
Academic license - for non-commercial use only - expires 2025-03-28
Using license file C:\Users\alyden\gurobi.lic

Gurobi 9.5.2 (win64, gurobi_cl) logging started Tue Apr  2 13:44:57 2024

Set parameter Username
Set parameter LogFile to value "gurobi.log"
Academic license - for non-commercial use only - expires 2025-03-28
Using license file C:\Users\alyden\gurobi.lic

Gurobi 9.5.2 (win64, gurobi_cl) logging started Tue Apr  2 13:45:26 2024

Set parameter Username
Set parameter LogFile to value "gurobi.log"
Academic license - for non-commercial use only - expires 2025-03-28
Using license file C:\Users\alyden\gurobi.lic

Gurobi 9.5.2 (win64, gurobi_cl) logging started Tue Apr  2 13:46:42 2024

Set parameter Username
Set parameter LogFile to value "gurobi.log"
Academic license - for non-commercial use only - expires 2025-03-28
Using license file C:\Users\alyden\gurobi.lic

Gurobi 9.5.2 (win64, gurobi_cl) logging started Tue Apr  2 13:47:46 2024

Set parameter Username
Set parameter LogFile to value "gurobi.log"
Academic license - for non-commercial use only - expires 2025-03-28
Using license file C:\Users\alyden\gurobi.lic

Gurobi 9.5.2 (win64, gurobi_cl) logging started Tue Apr  2 13:48:09 2024

Set parameter Username
Set parameter LogFile to value "gurobi.log"
Academic license - for non-commercial use only - expires 2025-03-28
Using license file C:\Users\alyden\gurobi.lic

Gurobi 9.5.2 (win64, gurobi_cl) logging started Tue Apr  2 13:51:02 2024

Set parameter Username
Set parameter LogFile to value "gurobi.log"
Academic license - for non-commercial use only - expires 2025-03-28
Using license file C:\Users\alyden\gurobi.lic

Gurobi 9.5.2 (win64, gurobi_cl) logging started Tue Apr  2 13:51:46 2024

Set parameter Username
Set parameter LogFile to value "gurobi.log"
Academic license - for non-commercial use only - expires 2025-03-28
Using license file C:\Users\alyden\gurobi.lic

Gurobi 9.5.2 (win64, gurobi_cl) logging started Tue Apr  2 13:52:28 2024

Set parameter Username
Set parameter LogFile to value "gurobi.log"
Academic license - for non-commercial use only - expires 2025-03-28
Using license file C:\Users\alyden\gurobi.lic

Gurobi 9.5.2 (win64, gurobi_cl) logging started Tue Apr  2 13:59:09 2024

Set parameter Username
Set parameter LogFile to value "gurobi.log"
Academic license - for non-commercial use only - expires 2025-03-28
Using license file C:\Users\alyden\gurobi.lic

Gurobi 9.5.2 (win64, gurobi_cl) logging started Tue Apr  2 14:09:31 2024

Set parameter Username
Set parameter LogFile to value "gurobi.log"
Academic license - for non-commercial use only - expires 2025-03-28
Using license file C:\Users\alyden\gurobi.lic

Gurobi 9.5.2 (win64, gurobi_cl) logging started Tue Apr  2 14:12:47 2024

Set parameter Username
Set parameter LogFile to value "gurobi.log"
Academic license - for non-commercial use only - expires 2025-03-28
Using license file C:\Users\alyden\gurobi.lic

Gurobi 9.5.2 (win64, gurobi_cl) logging started Tue Apr  2 14:13:20 2024

Set parameter Username
Set parameter LogFile to value "gurobi.log"
Academic license - for non-commercial use only - expires 2025-03-28
Using license file C:\Users\alyden\gurobi.lic

Gurobi 9.5.2 (win64, gurobi_cl) logging started Tue Apr  2 14:14:15 2024

Set parameter Username
Set parameter LogFile to value "gurobi.log"
Academic license - for non-commercial use only - expires 2025-03-28
Using license file C:\Users\alyden\gurobi.lic

Gurobi 9.5.2 (win64, gurobi_cl) logging started Tue Apr  2 14:20:34 2024

Set parameter Username
Set parameter LogFile to value "gurobi.log"
Academic license - for non-commercial use only - expires 2025-03-28
Using license file C:\Users\alyden\gurobi.lic

Gurobi 9.5.2 (win64, gurobi_cl) logging started Tue Apr  2 14:25:04 2024

Set parameter Username
Set parameter LogFile to value "gurobi.log"
Academic license - for non-commercial use only - expires 2025-03-28
Using license file C:\Users\alyden\gurobi.lic

Gurobi 9.5.2 (win64, gurobi_cl) logging started Tue Apr  2 14:25:32 2024

Set parameter Username
Set parameter LogFile to value "gurobi.log"
Academic license - for non-commercial use only - expires 2025-03-28
Using license file C:\Users\alyden\gurobi.lic

Gurobi 9.5.2 (win64, gurobi_cl) logging started Tue Apr  2 14:25:37 2024

Set parameter Username
Set parameter LogFile to value "gurobi.log"
Academic license - for non-commercial use only - expires 2025-03-28
Using license file C:\Users\alyden\gurobi.lic

Gurobi 9.5.2 (win64, gurobi_cl) logging started Tue Apr  2 14:25:55 2024

Set parameter Username
Set parameter LogFile to value "gurobi.log"
Academic license - for non-commercial use only - expires 2025-03-28
Using license file C:\Users\alyden\gurobi.lic

Gurobi 9.5.2 (win64, gurobi_cl) logging started Tue Apr  2 14:26:20 2024

Set parameter Username
Set parameter LogFile to value "gurobi.log"
Academic license - for non-commercial use only - expires 2025-03-28
Using license file C:\Users\alyden\gurobi.lic

Gurobi 9.5.2 (win64, gurobi_cl) logging started Tue Apr  2 14:27:02 2024

Set parameter Username
Set parameter LogFile to value "gurobi.log"
Academic license - for non-commercial use only - expires 2025-03-28
Using license file C:\Users\alyden\gurobi.lic

Gurobi 9.5.2 (win64, gurobi_cl) logging started Tue Apr  2 14:31:09 2024

Set parameter Username
Set parameter LogFile to value "gurobi.log"
Academic license - for non-commercial use only - expires 2025-03-28
Using license file C:\Users\alyden\gurobi.lic

Gurobi 9.5.2 (win64, gurobi_cl) logging started Tue Apr  2 14:32:11 2024

Set parameter Username
Set parameter LogFile to value "gurobi.log"
Academic license - for non-commercial use only - expires 2025-03-28
Using license file C:\Users\alyden\gurobi.lic

Gurobi 9.5.2 (win64, gurobi_cl) logging started Tue Apr  2 14:34:13 2024

Set parameter Username
Set parameter LogFile to value "gurobi.log"
Academic license - for non-commercial use only - expires 2025-03-28
Using license file C:\Users\alyden\gurobi.lic

Gurobi 9.5.2 (win64, gurobi_cl) logging started Tue Apr  2 14:39:17 2024

Set parameter Username
Set parameter LogFile to value "gurobi.log"
Academic license - for non-commercial use only - expires 2025-03-28
Using license file C:\Users\alyden\gurobi.lic

Gurobi 9.5.2 (win64, gurobi_cl) logging started Tue Apr  2 14:39:30 2024

Set parameter Username
Set parameter LogFile to value "gurobi.log"
Academic license - for non-commercial use only - expires 2025-03-28
Using license file C:\Users\alyden\gurobi.lic

Gurobi 9.5.2 (win64, gurobi_cl) logging started Tue Apr  2 15:29:57 2024

Set parameter Username
Set parameter LogFile to value "gurobi.log"
Academic license - for non-commercial use only - expires 2025-03-28
Using license file C:\Users\alyden\gurobi.lic

Gurobi 9.5.2 (win64, gurobi_cl) logging started Tue Apr  2 15:31:11 2024

Set parameter Username
Set parameter LogFile to value "gurobi.log"
Academic license - for non-commercial use only - expires 2025-03-28
Using license file C:\Users\alyden\gurobi.lic

Gurobi 9.5.2 (win64, gurobi_cl) logging started Tue Apr  2 15:32:05 2024

Set parameter Username
Set parameter LogFile to value "gurobi.log"
Academic license - for non-commercial use only - expires 2025-03-28
Using license file C:\Users\alyden\gurobi.lic

Gurobi 9.5.2 (win64, gurobi_cl) logging started Tue Apr  2 15:32:25 2024

Set parameter Username
Set parameter LogFile to value "gurobi.log"
Academic license - for non-commercial use only - expires 2025-03-28
Using license file C:\Users\alyden\gurobi.lic

Gurobi 9.5.2 (win64, gurobi_cl) logging started Tue Apr  2 15:41:39 2024

Set parameter Username
Set parameter LogFile to value "gurobi.log"
Academic license - for non-commercial use only - expires 2025-03-28
Using license file C:\Users\alyden\gurobi.lic

Gurobi 9.5.2 (win64, gurobi_cl) logging started Tue Apr  2 15:45:20 2024

Set parameter Username
Set parameter LogFile to value "gurobi.log"
Academic license - for non-commercial use only - expires 2025-03-28
Using license file C:\Users\alyden\gurobi.lic

Gurobi 9.5.2 (win64, gurobi_cl) logging started Tue Apr  2 15:47:02 2024

Set parameter Username
Set parameter LogFile to value "gurobi.log"
Academic license - for non-commercial use only - expires 2025-03-28
Using license file C:\Users\alyden\gurobi.lic

Gurobi 9.5.2 (win64, gurobi_cl) logging started Tue Apr  2 15:47:05 2024

Set parameter Username
Set parameter LogFile to value "gurobi.log"
Academic license - for non-commercial use only - expires 2025-03-28
Using license file C:\Users\alyden\gurobi.lic

Gurobi 9.5.2 (win64, gurobi_cl) logging started Tue Apr  2 15:49:22 2024

Set parameter Username
Set parameter LogFile to value "gurobi.log"
Academic license - for non-commercial use only - expires 2025-03-28
Using license file C:\Users\alyden\gurobi.lic

Gurobi 9.5.2 (win64, gurobi_cl) logging started Tue Apr  2 15:50:00 2024

Set parameter Username
Set parameter LogFile to value "gurobi.log"
Academic license - for non-commercial use only - expires 2025-03-28
Using license file C:\Users\alyden\gurobi.lic

Gurobi 9.5.2 (win64, gurobi_cl) logging started Tue Apr  2 15:52:19 2024

Set parameter Username
Set parameter LogFile to value "gurobi.log"
Academic license - for non-commercial use only - expires 2025-03-28
Using license file C:\Users\alyden\gurobi.lic

Gurobi 9.5.2 (win64, gurobi_cl) logging started Tue Apr  2 15:53:26 2024

Set parameter Username
Set parameter LogFile to value "gurobi.log"
Academic license - for non-commercial use only - expires 2025-03-28
Using license file C:\Users\alyden\gurobi.lic

Gurobi 9.5.2 (win64, gurobi_cl) logging started Tue Apr  2 15:53:59 2024

Set parameter Username
Set parameter LogFile to value "gurobi.log"
Academic license - for non-commercial use only - expires 2025-03-28
Using license file C:\Users\alyden\gurobi.lic

Gurobi 9.5.2 (win64, gurobi_cl) logging started Tue Apr  2 15:54:18 2024

Set parameter Username
Set parameter LogFile to value "gurobi.log"
Academic license - for non-commercial use only - expires 2025-03-28
Using license file C:\Users\alyden\gurobi.lic

Gurobi 9.5.2 (win64, gurobi_cl) logging started Tue Apr  2 15:54:36 2024

Set parameter Username
Set parameter LogFile to value "gurobi.log"
Academic license - for non-commercial use only - expires 2025-03-28
Using license file C:\Users\alyden\gurobi.lic

Gurobi 9.5.2 (win64, gurobi_cl) logging started Tue Apr  2 15:54:43 2024

Set parameter Username
Set parameter LogFile to value "gurobi.log"
Academic license - for non-commercial use only - expires 2025-03-28
Using license file C:\Users\alyden\gurobi.lic

Gurobi 9.5.2 (win64, gurobi_cl) logging started Tue Apr  2 15:55:48 2024

Set parameter Username
Set parameter LogFile to value "gurobi.log"
Academic license - for non-commercial use only - expires 2025-03-28
Using license file C:\Users\alyden\gurobi.lic

Gurobi 9.5.2 (win64, gurobi_cl) logging started Tue Apr  2 15:56:06 2024

Set parameter Username
Set parameter LogFile to value "gurobi.log"
Academic license - for non-commercial use only - expires 2025-03-28
Using license file C:\Users\alyden\gurobi.lic

Gurobi 9.5.2 (win64, gurobi_cl) logging started Tue Apr  2 15:56:27 2024

Set parameter Username
Set parameter LogFile to value "gurobi.log"
Academic license - for non-commercial use only - expires 2025-03-28
Using license file C:\Users\alyden\gurobi.lic

Gurobi 9.5.2 (win64, gurobi_cl) logging started Tue Apr  2 15:56:32 2024

Set parameter Username
Set parameter LogFile to value "gurobi.log"
Academic license - for non-commercial use only - expires 2025-03-28
Using license file C:\Users\alyden\gurobi.lic

Gurobi 9.5.2 (win64, gurobi_cl) logging started Tue Apr  2 15:57:03 2024

Set parameter Username
Set parameter LogFile to value "gurobi.log"
Academic license - for non-commercial use only - expires 2025-03-28
Using license file C:\Users\alyden\gurobi.lic

Gurobi 9.5.2 (win64, gurobi_cl) logging started Tue Apr  2 16:31:26 2024

Set parameter Username
Set parameter LogFile to value "gurobi.log"
Academic license - for non-commercial use only - expires 2025-03-28
Using license file C:\Users\alyden\gurobi.lic

Gurobi 9.5.2 (win64, gurobi_cl) logging started Tue Apr  2 16:41:04 2024

Set parameter Username
Set parameter LogFile to value "gurobi.log"
Academic license - for non-commercial use only - expires 2025-03-28
Using license file C:\Users\alyden\gurobi.lic
